(set-option :produce-models true)
(set-logic QF_LRA)
(set-info :notes | Strip-packing problem.|)
(declare-fun x0 () Real)
(declare-fun y0 () Real)
(declare-fun x1 () Real)
(declare-fun y1 () Real)
(declare-fun x2 () Real)
(declare-fun y2 () Real)
(declare-fun x3 () Real)
(declare-fun y3 () Real)
(declare-fun x4 () Real)
(declare-fun y4 () Real)
(declare-fun x5 () Real)
(declare-fun y5 () Real)
(declare-fun x6 () Real)
(declare-fun y6 () Real)
(declare-fun x7 () Real)
(declare-fun y7 () Real)
(declare-fun x8 () Real)
(declare-fun y8 () Real)
(declare-fun z () Real)
(declare-fun c () Real)
(assert (and (= c z) (and (>= x0 0) 
(and (>= y0 0) 
(and (>= x1 0) 
(and (>= y1 0) 
(and (>= x2 0) 
(and (>= y2 0) 
(and (>= x3 0) 
(and (>= y3 0) 
(and (>= x4 0) 
(and (>= y4 0) 
(and (>= x5 0) 
(and (>= y5 0) 
(and (>= x6 0) 
(and (>= y6 0) 
(and (>= x7 0) 
(and (>= y7 0) 
(and (>= x8 0) 
(and (>= y8 0) 
(and (>= z 0) 
(and (>= c 0) 
(and (<= (+ x0 0.349065527) z) 
(and (<= 0.9275637133 y0) 
(and (<= y0 1.5) 
(and (<= x0 (- 3.7940797191 0.349065527)) 
(and (>= x0 0) 
(and (<= (+ x1 0.9301445764) z) 
(and (<= 0.9092869867 y1) 
(and (<= y1 1.5) 
(and (<= x1 (- 3.7940797191 0.9301445764)) 
(and (>= x1 0) 
(and (<= (+ x2 0.6761672352) z) 
(and (<= 0.8491508261 y2) 
(and (<= y2 1.5) 
(and (<= x2 (- 3.7940797191 0.6761672352)) 
(and (>= x2 0) 
(and (<= (+ x3 0.8761980389) z) 
(and (<= 0.7767610354 y3) 
(and (<= y3 1.5) 
(and (<= x3 (- 3.7940797191 0.8761980389)) 
(and (>= x3 0) 
(and (<= (+ x4 0.4641179957) z) 
(and (<= 0.6343110831 y4) 
(and (<= y4 1.5) 
(and (<= x4 (- 3.7940797191 0.4641179957)) 
(and (>= x4 0) 
(and (<= (+ x5 0.9625043416) z) 
(and (<= 0.5663543163 y5) 
(and (<= y5 1.5) 
(and (<= x5 (- 3.7940797191 0.9625043416)) 
(and (>= x5 0) 
(and (<= (+ x6 0.9420010752) z) 
(and (<= 0.4925642668 y6) 
(and (<= y6 1.5) 
(and (<= x6 (- 3.7940797191 0.9420010752)) 
(and (>= x6 0) 
(and (<= (+ x7 0.5754808109) z) 
(and (<= 0.1731478753 y7) 
(and (<= y7 1.5) 
(and (<= x7 (- 3.7940797191 0.5754808109)) 
(and (>= x7 0) 
(and (<= (+ x8 0.3725667776) z) 
(and (<= 0.0522910575 y8) 
(and (<= y8 1.5) 
(and (<= x8 (- 3.7940797191 0.3725667776)) 
(and (>= x8 0) 
(and (<= c 3.7940797191) 
(and (or (<= (+ x0 0.349065527) x1) (or (<= (+ x1 0.9301445764) x0) (or (>= (- y0 0.9275637133) y1) (or (>= (- y1 0.9092869867) y0))))) 
(and (or (<= (+ x0 0.349065527) x2) (or (<= (+ x2 0.6761672352) x0) (or (>= (- y0 0.9275637133) y2) (or (>= (- y2 0.8491508261) y0))))) 
(and (or (<= (+ x0 0.349065527) x3) (or (<= (+ x3 0.8761980389) x0) (or (>= (- y0 0.9275637133) y3) (or (>= (- y3 0.7767610354) y0))))) 
(and (or (<= (+ x0 0.349065527) x4) (or (<= (+ x4 0.4641179957) x0) (or (>= (- y0 0.9275637133) y4) (or (>= (- y4 0.6343110831) y0))))) 
(and (or (<= (+ x0 0.349065527) x5) (or (<= (+ x5 0.9625043416) x0) (or (>= (- y0 0.9275637133) y5) (or (>= (- y5 0.5663543163) y0))))) 
(and (or (<= (+ x0 0.349065527) x6) (or (<= (+ x6 0.9420010752) x0) (or (>= (- y0 0.9275637133) y6) (or (>= (- y6 0.4925642668) y0))))) 
(and (or (<= (+ x0 0.349065527) x7) (or (<= (+ x7 0.5754808109) x0) (or (>= (- y0 0.9275637133) y7) (or (>= (- y7 0.1731478753) y0))))) 
(and (or (<= (+ x0 0.349065527) x8) (or (<= (+ x8 0.3725667776) x0) (or (>= (- y0 0.9275637133) y8) (or (>= (- y8 0.0522910575) y0))))) 
(and (or (<= (+ x1 0.9301445764) x2) (or (<= (+ x2 0.6761672352) x1) (or (>= (- y1 0.9092869867) y2) (or (>= (- y2 0.8491508261) y1))))) 
(and (or (<= (+ x1 0.9301445764) x3) (or (<= (+ x3 0.8761980389) x1) (or (>= (- y1 0.9092869867) y3) (or (>= (- y3 0.7767610354) y1))))) 
(and (or (<= (+ x1 0.9301445764) x4) (or (<= (+ x4 0.4641179957) x1) (or (>= (- y1 0.9092869867) y4) (or (>= (- y4 0.6343110831) y1))))) 
(and (or (<= (+ x1 0.9301445764) x5) (or (<= (+ x5 0.9625043416) x1) (or (>= (- y1 0.9092869867) y5) (or (>= (- y5 0.5663543163) y1))))) 
(and (or (<= (+ x1 0.9301445764) x6) (or (<= (+ x6 0.9420010752) x1) (or (>= (- y1 0.9092869867) y6) (or (>= (- y6 0.4925642668) y1))))) 
(and (or (<= (+ x1 0.9301445764) x7) (or (<= (+ x7 0.5754808109) x1) (or (>= (- y1 0.9092869867) y7) (or (>= (- y7 0.1731478753) y1))))) 
(and (or (<= (+ x1 0.9301445764) x8) (or (<= (+ x8 0.3725667776) x1) (or (>= (- y1 0.9092869867) y8) (or (>= (- y8 0.0522910575) y1))))) 
(and (or (<= (+ x2 0.6761672352) x3) (or (<= (+ x3 0.8761980389) x2) (or (>= (- y2 0.8491508261) y3) (or (>= (- y3 0.7767610354) y2))))) 
(and (or (<= (+ x2 0.6761672352) x4) (or (<= (+ x4 0.4641179957) x2) (or (>= (- y2 0.8491508261) y4) (or (>= (- y4 0.6343110831) y2))))) 
(and (or (<= (+ x2 0.6761672352) x5) (or (<= (+ x5 0.9625043416) x2) (or (>= (- y2 0.8491508261) y5) (or (>= (- y5 0.5663543163) y2))))) 
(and (or (<= (+ x2 0.6761672352) x6) (or (<= (+ x6 0.9420010752) x2) (or (>= (- y2 0.8491508261) y6) (or (>= (- y6 0.4925642668) y2))))) 
(and (or (<= (+ x2 0.6761672352) x7) (or (<= (+ x7 0.5754808109) x2) (or (>= (- y2 0.8491508261) y7) (or (>= (- y7 0.1731478753) y2))))) 
(and (or (<= (+ x2 0.6761672352) x8) (or (<= (+ x8 0.3725667776) x2) (or (>= (- y2 0.8491508261) y8) (or (>= (- y8 0.0522910575) y2))))) 
(and (or (<= (+ x3 0.8761980389) x4) (or (<= (+ x4 0.4641179957) x3) (or (>= (- y3 0.7767610354) y4) (or (>= (- y4 0.6343110831) y3))))) 
(and (or (<= (+ x3 0.8761980389) x5) (or (<= (+ x5 0.9625043416) x3) (or (>= (- y3 0.7767610354) y5) (or (>= (- y5 0.5663543163) y3))))) 
(and (or (<= (+ x3 0.8761980389) x6) (or (<= (+ x6 0.9420010752) x3) (or (>= (- y3 0.7767610354) y6) (or (>= (- y6 0.4925642668) y3))))) 
(and (or (<= (+ x3 0.8761980389) x7) (or (<= (+ x7 0.5754808109) x3) (or (>= (- y3 0.7767610354) y7) (or (>= (- y7 0.1731478753) y3))))) 
(and (or (<= (+ x3 0.8761980389) x8) (or (<= (+ x8 0.3725667776) x3) (or (>= (- y3 0.7767610354) y8) (or (>= (- y8 0.0522910575) y3))))) 
(and (or (<= (+ x4 0.4641179957) x5) (or (<= (+ x5 0.9625043416) x4) (or (>= (- y4 0.6343110831) y5) (or (>= (- y5 0.5663543163) y4))))) 
(and (or (<= (+ x4 0.4641179957) x6) (or (<= (+ x6 0.9420010752) x4) (or (>= (- y4 0.6343110831) y6) (or (>= (- y6 0.4925642668) y4))))) 
(and (or (<= (+ x4 0.4641179957) x7) (or (<= (+ x7 0.5754808109) x4) (or (>= (- y4 0.6343110831) y7) (or (>= (- y7 0.1731478753) y4))))) 
(and (or (<= (+ x4 0.4641179957) x8) (or (<= (+ x8 0.3725667776) x4) (or (>= (- y4 0.6343110831) y8) (or (>= (- y8 0.0522910575) y4))))) 
(and (or (<= (+ x5 0.9625043416) x6) (or (<= (+ x6 0.9420010752) x5) (or (>= (- y5 0.5663543163) y6) (or (>= (- y6 0.4925642668) y5))))) 
(and (or (<= (+ x5 0.9625043416) x7) (or (<= (+ x7 0.5754808109) x5) (or (>= (- y5 0.5663543163) y7) (or (>= (- y7 0.1731478753) y5))))) 
(and (or (<= (+ x5 0.9625043416) x8) (or (<= (+ x8 0.3725667776) x5) (or (>= (- y5 0.5663543163) y8) (or (>= (- y8 0.0522910575) y5))))) 
(and (or (<= (+ x6 0.9420010752) x7) (or (<= (+ x7 0.5754808109) x6) (or (>= (- y6 0.4925642668) y7) (or (>= (- y7 0.1731478753) y6))))) 
(and (or (<= (+ x6 0.9420010752) x8) (or (<= (+ x8 0.3725667776) x6) (or (>= (- y6 0.4925642668) y8) (or (>= (- y8 0.0522910575) y6))))) 
(and (or (<= (+ x7 0.5754808109) x8) (or (<= (+ x8 0.3725667776) x7) (or (>= (- y7 0.1731478753) y8) (or (>= (- y8 0.0522910575) y7))))) ))))))))))))))))))))))))))))))))))))))))))))))))))))))))))))))))))))))))))))))))))))))))))))))))))))))))
(minimize c)
(check-sat)
(get-objectives)
(exit)
